
Value of objective function: 1.99224263

Actual values of the variables:
pL1_div_from_law          1.99224
comp_pos0                0.290535
comp_neg0                       0
comp_pos1                0.265737
comp_neg1                       0
comp_pos2                0.175124
comp_neg2                       0
comp_pos3                0.118097
comp_neg3                       0
comp_pos4                0.179378
comp_neg4                       0
comp_pos5                       0
comp_neg5                       0
comp_pos6                0.448147
comp_neg6                       0
comp_pos7                0.196035
comp_neg7                       0
comp_pos8                  0.2015
comp_neg8                       0
comp_pos9               0.0229186
comp_neg9                       0
comp_pos10              0.0947705
comp_neg10                      0
comp_pos11                      0
comp_neg11                      0
comp_pos12                      0
comp_neg12                      0
comp_pos13                      0
comp_neg13                      0
z_c0_t0               1.32138e+10
p0_c0_t0              1.17173e+09
p1_c0_t0               1.0423e+08
p2_c0_t0              1.54137e+10
p3_c0_t0              3.63285e+08
diff0                 3.83908e+09
normdiff0                0.290535
z_c0_t1               1.47752e+10
p0_c0_t1              1.00799e+09
p1_c0_t1              1.16885e+08
p2_c0_t1              1.71458e+10
p3_c0_t1              4.30823e+08
diff1                 3.92631e+09
normdiff1                0.265737
z_c1_t0               1.65566e+10
p0_c1_t0               1.1847e+09
p1_c1_t0              1.33926e+08
p2_c1_t0              1.79782e+10
p3_c1_t0              1.59195e+08
diff2                 2.89946e+09
normdiff2                0.175124
z_c1_t1               1.94959e+10
p0_c1_t1              1.18201e+09
p1_c1_t1              1.90527e+08
p2_c1_t1              2.02719e+10
p3_c1_t1                1.539e+08
diff3                 2.30241e+09
normdiff3                0.118097
z_c2_t0               7.24754e+09
p0_c2_t0              4.04208e+08
p1_c2_t0              5.46506e+07
p2_c2_t0              7.94801e+09
p3_c2_t0              1.40725e+08
diff4                 1.30005e+09
normdiff4                0.179378
z_c2_t1               7.97123e+09
p0_c2_t1              3.24851e+08
p1_c2_t1              6.38795e+07
p2_c2_t1              7.47087e+09
p3_c2_t1              1.11626e+08
diff5                           0
normdiff5                       0
z_c3_t0               1.22612e+10
p0_c3_t0              7.31308e+08
p1_c3_t0              9.34316e+07
p2_c3_t0              1.63358e+10
p3_c3_t0              5.95455e+08
diff6                 5.49482e+09
normdiff6                0.448147
z_c3_t1               1.42798e+10
p0_c3_t1              8.18908e+08
p1_c3_t1              9.56852e+07
p2_c3_t1              1.57143e+10
p3_c3_t1              4.50226e+08
diff7                 2.79934e+09
normdiff7                0.196035
z_c4_t0               7.97197e+09
p0_c4_t0              3.22781e+08
p1_c4_t0              1.04551e+08
p2_c4_t0              9.03801e+09
p3_c4_t0              1.12977e+08
diff8                 1.60635e+09
normdiff8                  0.2015
z_c4_t1                8.9819e+09
p0_c4_t1              3.30432e+08
p1_c4_t1              9.62536e+07
p2_c4_t1              8.68985e+09
p3_c4_t1              7.12135e+07
diff9                 2.05852e+08
normdiff9               0.0229186
z_c5_t0               1.00642e+10
p0_c5_t0              5.69213e+08
p1_c5_t0              8.82169e+07
p2_c5_t0              1.03102e+10
p3_c5_t0              5.03208e+07
diff10                9.53785e+08
normdiff10              0.0947705
z_c5_t1                1.2016e+10
p0_c5_t1              4.15796e+08
p1_c5_t1              8.82549e+07
p2_c5_t1              1.13865e+10
p3_c5_t1               1.2541e+08
diff11                          0
normdiff11                      0
z_c6_t0               1.81204e+10
p0_c6_t0              1.03934e+09
p1_c6_t0              1.11448e+08
p2_c6_t0              1.68053e+10
p3_c6_t0              1.64267e+08
diff12                          0
normdiff12                      0
z_c6_t1               2.06345e+10
p0_c6_t1              1.10639e+09
p1_c6_t1              1.03172e+08
p2_c6_t1              1.93184e+10
p3_c6_t1              1.06522e+08
diff13                          0
normdiff13                      0
